Minimize
  obj: x0 + x1 + x2 + x3 + x4 + x5 + x6 + x7 + x8 + x9 + x10

Subject To
  c0: x1 + x4 + x6 + x8 + x9 = 48
  c1: x0 + x5 + x8 = 3
  c2: x3 + x7 + x8 + x9 = 43
  c3: x1 + x5 + x6 + x9 + x10 = 50
  c4: x1 + x5 + x8 = 2
  c5: x4 + x8 + x9 = 35
  c6: x1 + x2 + x9 = 31
  c7: x1 + x3 + x8 = 14
  c8: x0 + x2 + x4 + x7 + x8 + x9 + x10 = 78

Bounds
  x0 >= 0
  x1 >= 0
  x2 >= 0
  x3 >= 0
  x4 >= 0
  x5 >= 0
  x6 >= 0
  x7 >= 0
  x8 >= 0
  x9 >= 0
  x10 >= 0

Generals
  x0 x1 x2 x3 x4 x5 x6 x7 x8 x9 x10

End
